54
50
52
35
12
34
76
46
99
3
18
1
89
97
27
62
96
95
65
11
26
82
44
24
37
4
93
41
70
5
22
63
66
30
71
16
55
91
84
56
88
23
20
86
25
92
64
47
0
42
2
51
98
85
83
81
45
73
94
14
36
28
57
77
40
59
67
19
61
87
21
10
15
68
39
74
48
8
17
6
72
60
38
31
53
69
7
75
29
32
90
78
49
80
9
33
58
79
43
13
